data;
param n:=50;
param w:=1 105 2 117 3 229 4 75 5 -59 6 27 7 190 8 -152 9 17 10 -69 11 242 12 -118 13 -194 14 -56 15 -50 16 -11 17 180 18 29 19 -84 20 123 21 210 22 -61 23 13 24 -168 25 145 26 158 27 -4 28 -198 29 -57 30 -74 31 144 32 -27 33 165 34 147 35 -149 36 -35 37 87 38 171 39 -229 40 65 41 -176 42 -247 43 2 44 -185 45 -27 46 185 47 -216 48 66 49 -58 50 -188;
